
Gurobi 9.5.2 (mac64[arm]) logging started Mon Apr 24 19:30:07 2023

Set parameter LogFile to value "Java/output/pure_mip/scenario_seed_3_nJob_20_machineCount_1/mip_increment_5/log.txt"
Gurobi Optimizer version 9.5.2 build v9.5.2rc0 (mac64[arm])
Thread count: 8 physical cores, 8 logical processors, using up to 8 threads
Optimize a model with 294 rows, 1870 columns and 7816 nonzeros
Model fingerprint: 0x502cea73
Variable types: 0 continuous, 1870 integer (1870 binary)
Coefficient statistics:
  Matrix range     [1e+00, 2e+02]
  Objective range  [6e+00, 3e+06]
  Bounds range     [1e+00, 1e+00]
  RHS range        [1e+00, 1e+00]
Found heuristic solution: objective 7417776.0000
Presolve removed 10 rows and 256 columns
Presolve time: 0.01s
Presolved: 284 rows, 1614 columns, 6742 nonzeros
Variable types: 0 continuous, 1614 integer (1614 binary)
Found heuristic solution: objective 6974676.0000

Root relaxation: objective 8.557875e+04, 1396 iterations, 0.02 seconds (0.02 work units)

    Nodes    |    Current Node    |     Objective Bounds      |     Work
 Expl Unexpl |  Obj  Depth IntInf | Incumbent    BestBd   Gap | It/Node Time

     0     0 85578.7500    0  104 6974676.00 85578.7500  98.8%     -    0s
H    0     0                    4144796.0000 85578.7500  97.9%     -    0s
H    0     0                    3343106.0000 85578.7500  97.4%     -    0s
H    0     0                    2670896.0000 85578.7500  96.8%     -    0s
     0     0 93778.6843    0  148 2670896.00 93778.6843  96.5%     -    0s
H    0     0                    2357136.0000 93778.6843  96.0%     -    0s
H    0     0                    2326621.0000 93778.6843  96.0%     -    0s
H    0     0                    2174961.0000 102493.058  95.3%     -    0s
     0     0 102493.058    0  150 2174961.00 102493.058  95.3%     -    0s
H    0     0                    2171541.0000 102493.058  95.3%     -    0s
H    0     0                    1853096.0000 102665.126  94.5%     -    0s
     0     0 102665.126    0  143 1853096.00 102665.126  94.5%     -    0s
     0     0 102705.480    0  147 1853096.00 102705.480  94.5%     -    0s
     0     0 102705.480    0  148 1853096.00 102705.480  94.5%     -    0s
     0     0 109151.251    0  186 1853096.00 109151.251  94.1%     -    0s
     0     0 109935.827    0  204 1853096.00 109935.827  94.1%     -    0s
     0     0 110729.791    0  199 1853096.00 110729.791  94.0%     -    0s
     0     0 111383.546    0  205 1853096.00 111383.546  94.0%     -    0s
H    0     0                    516251.00000 111500.694  78.4%     -    0s
     0     0 111500.694    0  209 516251.000 111500.694  78.4%     -    0s
     0     0 111501.765    0  214 516251.000 111501.765  78.4%     -    0s
H    0     0                    512431.00000 115926.493  77.4%     -    0s
     0     0 115926.493    0  185 512431.000 115926.493  77.4%     -    0s
H    0     0                    489011.00000 115926.493  76.3%     -    0s
H    0     0                    344916.00000 115926.493  66.4%     -    0s
     0     0 117121.607    0  205 344916.000 117121.607  66.0%     -    0s
     0     0 117492.448    0  207 344916.000 117492.448  65.9%     -    0s
     0     0 117522.094    0  203 344916.000 117522.094  65.9%     -    0s
     0     0 117524.529    0  201 344916.000 117524.529  65.9%     -    0s
     0     0 127068.580    0  220 344916.000 127068.580  63.2%     -    0s
H    0     0                    220081.00000 127068.580  42.3%     -    0s
H    0     0                    203241.00000 127068.580  37.5%     -    0s
H    0     0                    182881.00000 127068.580  30.5%     -    0s
     0     0 127852.566    0  229 182881.000 127852.566  30.1%     -    0s
     0     0 127991.642    0  220 182881.000 127991.642  30.0%     -    0s
     0     0 128007.245    0  220 182881.000 128007.245  30.0%     -    0s
     0     0 132762.132    0  181 182881.000 132762.132  27.4%     -    0s
     0     0 132762.132    0  120 182881.000 132762.132  27.4%     -    0s
H    0     0                    182821.00000 132762.132  27.4%     -    0s
     0     0 132762.132    0  161 182821.000 132762.132  27.4%     -    0s
     0     0 132762.132    0  165 182821.000 132762.132  27.4%     -    0s
     0     0 136852.845    0  184 182821.000 136852.845  25.1%     -    0s
     0     0 138602.971    0  186 182821.000 138602.971  24.2%     -    0s
H    0     0                    175351.00000 138602.971  21.0%     -    0s
     0     0 139308.904    0  195 175351.000 139308.904  20.6%     -    0s
     0     0 139309.851    0  190 175351.000 139309.851  20.6%     -    0s
     0     0 143922.014    0  177 175351.000 143922.014  17.9%     -    0s
     0     0 144619.302    0  170 175351.000 144619.302  17.5%     -    0s
     0     0 144637.616    0  177 175351.000 144637.616  17.5%     -    0s
     0     0 147744.559    0  199 175351.000 147744.559  15.7%     -    0s
     0     0 148235.733    0  198 175351.000 148235.733  15.5%     -    0s
     0     0 148450.562    0  216 175351.000 148450.562  15.3%     -    0s
     0     0 148473.522    0  206 175351.000 148473.522  15.3%     -    0s
     0     0 148593.013    0  208 175351.000 148593.013  15.3%     -    0s
     0     0 148632.208    0  211 175351.000 148632.208  15.2%     -    0s
     0     0 150158.190    0  205 175351.000 150158.190  14.4%     -    0s
H    0     0                    173191.00000 150158.190  13.3%     -    0s
     0     0 150244.516    0  213 173191.000 150244.516  13.2%     -    0s
     0     0 150245.774    0  209 173191.000 150245.774  13.2%     -    0s
     0     0 150770.047    0  149 173191.000 150770.047  12.9%     -    0s
     0     0 150776.125    0  152 173191.000 150776.125  12.9%     -    0s
     0     0 152095.967    0  174 173191.000 152095.967  12.2%     -    0s
     0     0 152096.084    0  179 173191.000 152096.084  12.2%     -    0s
     0     0 152967.036    0  170 173191.000 152967.036  11.7%     -    0s
     0     0 153026.556    0  161 173191.000 153026.556  11.6%     -    0s
     0     0 153027.914    0  168 173191.000 153027.914  11.6%     -    0s
     0     0 153676.946    0  151 173191.000 153676.946  11.3%     -    0s
     0     0 153942.806    0  142 173191.000 153942.806  11.1%     -    0s
     0     0 153943.917    0  146 173191.000 153943.917  11.1%     -    0s
     0     0 154645.133    0  102 173191.000 154645.133  10.7%     -    0s
     0     0 155157.000    0  145 173191.000 155157.000  10.4%     -    0s
     0     0 155164.519    0  146 173191.000 155164.519  10.4%     -    0s
     0     0 155183.000    0   98 173191.000 155183.000  10.4%     -    0s
     0     0 155183.000    0   89 173191.000 155183.000  10.4%     -    0s
H    0     0                    172811.00000 155183.000  10.2%     -    0s
H    0     0                    163831.00000 155183.000  5.28%     -    0s
     0     0 155459.000    0  101 163831.000 155459.000  5.11%     -    0s
     0     0 155459.000    0  116 163831.000 155459.000  5.11%     -    0s
     0     0 155459.000    0  121 163831.000 155459.000  5.11%     -    0s
H    0     0                    163811.00000 155459.000  5.10%     -    0s
     0     0 155459.000    0  113 163811.000 155459.000  5.10%     -    0s
     0     0 155459.000    0  124 163811.000 155459.000  5.10%     -    0s
     0     0 155459.000    0  111 163811.000 155459.000  5.10%     -    0s
     0     0 155459.000    0   61 163811.000 155459.000  5.10%     -    0s
     0     0 155459.000    0   63 163811.000 155459.000  5.10%     -    0s
     0     0 155459.000    0   56 163811.000 155459.000  5.10%     -    0s
H    0     0                    158566.00000 155459.000  1.96%     -    0s
     0     0 155459.000    0   62 158566.000 155459.000  1.96%     -    0s
     0     0 155459.000    0   56 158566.000 155459.000  1.96%     -    0s
     0     0 158556.000    0    4 158566.000 158556.000  0.01%     -    0s

Cutting planes:
  Gomory: 2
  Cover: 5
  Clique: 31
  MIR: 28
  StrongCG: 6
  GUB cover: 32
  Zero half: 9
  RLT: 1

Explored 1 nodes (16147 simplex iterations) in 0.77 seconds (0.93 work units)
Thread count was 8 (of 8 available processors)

Solution count 10: 158566 163811 163831 ... 220081

Optimal solution found (tolerance 1.00e-04)
Best objective 1.585660000000e+05, best bound 1.585560000000e+05, gap 0.0063%
